134
135
185
184
183
133
132
131
125
124
121
120
118
119
122
123
130
38
129
128
127
126
36
37
117
39
35
34
33
32
31
30
29
68
69
70
72
71
63
62
64
65
61
60
59
58
57
56
54
53
50
51
52
55
42
43
41
44
46
47
48
49
45
40
102
105
104
103
106
107
108
109
110
98
94
95
96
97
93
92
91
86
87
88
90
89
80
81
79
78
76
77
82
85
84
83
66
67
73
75
74
0
1
4
5
6
7
3
2
15
13
12
14
11
9
8
16
17
10
18
20
19
25
26
27
28
21
22
23
136
141
137
138
139
140
144
142
143
24
145
146
147
153
154
152
151
150
149
148
186
187
188
189
191
190
192
193
197
196
198
199
200
201
195
194
182
178
181
180
179
177
176
175
173
171
172
174
170
169
162
168
163
164
165
161
160
159
156
157
158
155
101
100
99
111
112
113
114
115
116
166
167